NAME mip_RS_PM
ROWS
 N  OBJ
 E  R0      
 E  R1      
 E  R2      
 E  R3      
 E  R4      
 L  R5      
 L  R6      
 L  R7      
 L  R8      
 L  R9      
 L  R10     
 L  R11     
 L  R12     
 L  R13     
 L  R14     
 L  R15     
 L  R16     
 L  R17     
 L  R18     
 L  R19     
 L  R20     
 E  R21     
 E  R22     
 E  R23     
 G  R24     
 G  R25     
 G  R26     
 G  R27     
 G  R28     
 G  R29     
 G  R30     
 G  R31     
 G  R32     
 G  R33     
 G  R34     
 G  R35     
 G  R36     
 G  R37     
 G  R38     
 G  R39     
 G  R40     
 G  R41     
 G  R42     
 G  R43     
 G  R44     
 G  R45     
 G  R46     
 G  R47     
 G  R48     
 G  R49     
 G  R50     
 G  R51     
 G  R52     
 G  R53     
 G  R54     
 G  R55     
 G  R56     
 G  R57     
 G  R58     
 G  R59     
 G  R60     
 G  R61     
 G  R62     
 G  R63     
 G  R64     
 G  R65     
 G  R66     
 G  R67     
 G  R68     
 G  R69     
 G  R70     
 G  R71     
 G  R72     
 G  R73     
 G  R74     
 G  R75     
 G  R76     
 G  R77     
 G  R78     
 G  R79     
 G  R80     
 G  R81     
 G  R82     
 G  R83     
 G  R84     
 G  R85     
 G  R86     
 G  R87     
 G  R88     
 G  R89     
 G  R90     
 G  R91     
 G  R92     
 G  R93     
 G  R94     
 G  R95     
 G  R96     
 G  R97     
 G  R98     
 G  R99     
 G  R100    
 G  R101    
 G  R102    
 G  R103    
 G  R104    
 G  R105    
 G  R106    
 G  R107    
 G  R108    
 G  R109    
 G  R110    
 G  R111    
 G  R112    
 G  R113    
 G  R114    
 G  R115    
 G  R116    
 G  R117    
 G  R118    
 G  R119    
 G  R120    
 G  R121    
 G  R122    
 G  R123    
 G  R124    
 G  R125    
 G  R126    
 G  R127    
 G  R128    
 G  R129    
 G  R130    
 G  R131    
 G  R132    
 G  R133    
 G  R134    
 G  R135    
 G  R136    
 G  R137    
 G  R138    
 G  R139    
 G  R140    
 G  R141    
 G  R142    
 G  R143    
 G  R144    
 G  R145    
 G  R146    
 G  R147    
 G  R148    
 G  R149    
 G  R150    
 G  R151    
 G  R152    
 G  R153    
 G  R154    
 G  R155    
 G  R156    
 G  R157    
 G  R158    
 G  R159    
 G  R160    
 G  R161    
 G  R162    
 G  R163    
 G  R164    
 G  R165    
 G  R166    
 G  R167    
 G  R168    
 G  R169    
 G  R170    
 G  R171    
 G  R172    
 G  R173    
 G  R174    
 G  R175    
 G  R176    
 G  R177    
 G  R178    
 G  R179    
 G  R180    
 G  R181    
 G  R182    
 G  R183    
 G  R184    
 G  R185    
 G  R186    
 G  R187    
 G  R188    
 G  R189    
 G  R190    
 G  R191    
 G  R192    
 G  R193    
 G  R194    
 G  R195    
 G  R196    
 G  R197    
 G  R198    
 G  R199    
 G  R200    
 G  R201    
 G  R202    
 G  R203    
 G  R204    
 G  R205    
 G  R206    
 G  R207    
 G  R208    
 G  R209    
 G  R210    
 G  R211    
 G  R212    
 G  R213    
 G  R214    
 G  R215    
 G  R216    
 G  R217    
 G  R218    
 G  R219    
 G  R220    
 G  R221    
 G  R222    
 G  R223    
COLUMNS
    C0        OBJ       1
    C0        R5        1
    C0        R21       1
    C0        R24       9.5793891579236523e-01
    C0        R25       8.7430326626152033e-01
    C0        R26       7.6355992030093212e-01
    C0        R27       6.3587777477101692e-01
    C0        R28       0.5
    C0        R29       3.6412222522898308e-01
    C0        R30       2.3644007969906788e-01
    C0        R31       1.2569673373847967e-01
    C0        R32       4.2061084207634769e-02
    MARKER    'MARKER'                 'INTORG'
    C1        OBJ       80
    C1        R0        1
    C1        R2        1
    C1        R5        -10000
    C1        R24       -1.9607567181181214e+01
    C1        R25       -1.8519334524412713e+01
    C1        R26       -1.6812890276844037e+01
    C1        R27       -1.4595418716222055e+01
    C1        R28       -1.1994711402007164e+01
    C1        R29       -9.1603077253813776e+00
    C1        R30       -6.2704934648067532e+00
    C1        R31       -3.5472038739519016e+00
    C1        R32       -1.2900105494866079e+00
    MARKER    'MARKER'                 'INTEND'
    C2        OBJ       11
    C2        R24       1
    C2        R25       1
    C2        R26       1
    C2        R27       1
    C2        R28       1
    C2        R29       1
    C2        R30       1
    C2        R31       1
    C2        R32       1
    C2        R33       1
    C3        OBJ       0
    C4        OBJ       0
    C5        OBJ       0
    C6        OBJ       2
    C6        R6        1
    C6        R22       1
    C6        R34       9.5793891579236523e-01
    C6        R35       8.7430326626152033e-01
    C6        R36       7.6355992030093212e-01
    C6        R37       6.3587777477101692e-01
    C6        R38       0.5
    C6        R39       3.6412222522898308e-01
    C6        R40       2.3644007969906788e-01
    C6        R41       1.2569673373847967e-01
    C6        R42       4.2061084207634769e-02
    C6        R44       9.5793891579236523e-01
    C6        R45       8.7430326626152033e-01
    C6        R46       7.6355992030093212e-01
    C6        R47       6.3587777477101692e-01
    C6        R48       0.5
    C6        R49       3.6412222522898308e-01
    C6        R50       2.3644007969906788e-01
    C6        R51       1.2569673373847967e-01
    C6        R52       4.2061084207634769e-02
    MARKER    'MARKER'                 'INTORG'
    C7        OBJ       20
    C7        R0        1
    C7        R3        1
    C7        R6        -10000
    C7        R34       -1.9607567181181214e+01
    C7        R35       -1.8519334524412713e+01
    C7        R36       -1.6812890276844037e+01
    C7        R37       -1.4595418716222055e+01
    C7        R38       -1.1994711402007164e+01
    C7        R39       -9.1603077253813776e+00
    C7        R40       -6.2704934648067532e+00
    C7        R41       -3.5472038739519016e+00
    C7        R42       -1.2900105494866079e+00
    C7        R44       -5.8479857357973543e+01
    C7        R45       -5.4768656144119632e+01
    C7        R46       -4.9260923041580334e+01
    C7        R47       -4.2351696300420343e+01
    C7        R48       -3.4460310290381926e+01
    C7        R49       -2.6046363327898320e+01
    C7        R50       -1.7633732605468481e+01
    C7        R51       -9.8522641927371915e+00
    C7        R52       -3.5271874628897102e+00
    MARKER    'MARKER'                 'INTEND'
    C8        OBJ       11
    C8        R34       1
    C8        R35       1
    C8        R36       1
    C8        R37       1
    C8        R38       1
    C8        R39       1
    C8        R40       1
    C8        R41       1
    C8        R42       1
    C8        R43       1
    C9        OBJ       11
    C9        R44       1
    C9        R45       1
    C9        R46       1
    C9        R47       1
    C9        R48       1
    C9        R49       1
    C9        R50       1
    C9        R51       1
    C9        R52       1
    C9        R53       1
    C10       OBJ       0
    C11       OBJ       0
    C12       OBJ       3
    C12       R7        1
    C12       R23       1
    C12       R54       9.5793891579236523e-01
    C12       R55       8.7430326626152033e-01
    C12       R56       7.6355992030093212e-01
    C12       R57       6.3587777477101692e-01
    C12       R58       0.5
    C12       R59       3.6412222522898308e-01
    C12       R60       2.3644007969906788e-01
    C12       R61       1.2569673373847967e-01
    C12       R62       4.2061084207634769e-02
    C12       R64       9.5793891579236523e-01
    C12       R65       8.7430326626152033e-01
    C12       R66       7.6355992030093212e-01
    C12       R67       6.3587777477101692e-01
    C12       R68       0.5
    C12       R69       3.6412222522898308e-01
    C12       R70       2.3644007969906788e-01
    C12       R71       1.2569673373847967e-01
    C12       R72       4.2061084207634769e-02
    C12       R74       9.5793891579236523e-01
    C12       R75       8.7430326626152033e-01
    C12       R76       7.6355992030093212e-01
    C12       R77       6.3587777477101692e-01
    C12       R78       0.5
    C12       R79       3.6412222522898308e-01
    C12       R80       2.3644007969906788e-01
    C12       R81       1.2569673373847967e-01
    C12       R82       4.2061084207634769e-02
    MARKER    'MARKER'                 'INTORG'
    C13       OBJ       -100
    C13       R0        1
    C13       R4        1
    C13       R7        -10000
    C13       R54       -1.9607567181181214e+01
    C13       R55       -1.8519334524412713e+01
    C13       R56       -1.6812890276844037e+01
    C13       R57       -1.4595418716222055e+01
    C13       R58       -1.1994711402007164e+01
    C13       R59       -9.1603077253813776e+00
    C13       R60       -6.2704934648067532e+00
    C13       R61       -3.5472038739519016e+00
    C13       R62       -1.2900105494866079e+00
    C13       R64       -5.8479857357973543e+01
    C13       R65       -5.4768656144119632e+01
    C13       R66       -4.9260923041580334e+01
    C13       R67       -4.2351696300420343e+01
    C13       R68       -3.4460310290381926e+01
    C13       R69       -2.6046363327898320e+01
    C13       R70       -1.7633732605468481e+01
    C13       R71       -9.8522641927371915e+00
    C13       R72       -3.5271874628897102e+00
    C13       R74       -1.1663188406816235e+02
    C13       R75       -1.0878253128302892e+02
    C13       R76       -9.7395673212715025e+01
    C13       R77       -8.3331653763985869e+01
    C13       R78       -6.7463526651802312e+01
    C13       R79       -5.0720987818941822e+01
    C13       R80       -3.4141292340491319e+01
    C13       R81       -1.8949747380264039e+01
    C13       R82       -6.7265442779946962e+00
    MARKER    'MARKER'                 'INTEND'
    C14       OBJ       11
    C14       R54       1
    C14       R55       1
    C14       R56       1
    C14       R57       1
    C14       R58       1
    C14       R59       1
    C14       R60       1
    C14       R61       1
    C14       R62       1
    C14       R63       1
    C15       OBJ       11
    C15       R64       1
    C15       R65       1
    C15       R66       1
    C15       R67       1
    C15       R68       1
    C15       R69       1
    C15       R70       1
    C15       R71       1
    C15       R72       1
    C15       R73       1
    C16       OBJ       11
    C16       R74       1
    C16       R75       1
    C16       R76       1
    C16       R77       1
    C16       R78       1
    C16       R79       1
    C16       R80       1
    C16       R81       1
    C16       R82       1
    C16       R83       1
    C17       OBJ       0
    C18       OBJ       4
    C18       R8        1
    C18       R21       -1
    C18       R84       9.5793891579236523e-01
    C18       R85       8.7430326626152033e-01
    C18       R86       7.6355992030093212e-01
    C18       R87       6.3587777477101692e-01
    C18       R88       0.5
    C18       R89       3.6412222522898308e-01
    C18       R90       2.3644007969906788e-01
    C18       R91       1.2569673373847967e-01
    C18       R92       4.2061084207634769e-02
    C18       R94       9.5793891579236523e-01
    C18       R95       8.7430326626152033e-01
    C18       R96       7.6355992030093212e-01
    C18       R97       6.3587777477101692e-01
    C18       R98       0.5
    C18       R99       3.6412222522898308e-01
    C18       R100      2.3644007969906788e-01
    C18       R101      1.2569673373847967e-01
    C18       R102      4.2061084207634769e-02
    C18       R104      9.5793891579236523e-01
    C18       R105      8.7430326626152033e-01
    C18       R106      7.6355992030093212e-01
    C18       R107      6.3587777477101692e-01
    C18       R108      0.5
    C18       R109      3.6412222522898308e-01
    C18       R110      2.3644007969906788e-01
    C18       R111      1.2569673373847967e-01
    C18       R112      4.2061084207634769e-02
    C18       R114      9.5793891579236523e-01
    C18       R115      8.7430326626152033e-01
    C18       R116      7.6355992030093212e-01
    C18       R117      6.3587777477101692e-01
    C18       R118      0.5
    C18       R119      3.6412222522898308e-01
    C18       R120      2.3644007969906788e-01
    C18       R121      1.2569673373847967e-01
    C18       R122      4.2061084207634769e-02
    MARKER    'MARKER'                 'INTORG'
    C19       OBJ       -260
    C19       R0        1
    C19       R1        1
    C19       R8        -10000
    C19       R84       -1.9607567181181214e+01
    C19       R85       -1.8519334524412713e+01
    C19       R86       -1.6812890276844037e+01
    C19       R87       -1.4595418716222055e+01
    C19       R88       -1.1994711402007164e+01
    C19       R89       -9.1603077253813776e+00
    C19       R90       -6.2704934648067532e+00
    C19       R91       -3.5472038739519016e+00
    C19       R92       -1.2900105494866079e+00
    C19       R94       -5.8479857357973543e+01
    C19       R95       -5.4768656144119632e+01
    C19       R96       -4.9260923041580334e+01
    C19       R97       -4.2351696300420343e+01
    C19       R98       -3.4460310290381926e+01
    C19       R99       -2.6046363327898320e+01
    C19       R100      -1.7633732605468481e+01
    C19       R101      -9.8522641927371915e+00
    C19       R102      -3.5271874628897102e+00
    C19       R104      -1.1663188406816235e+02
    C19       R105      -1.0878253128302892e+02
    C19       R106      -9.7395673212715025e+01
    C19       R107      -8.3331653763985869e+01
    C19       R108      -6.7463526651802312e+01
    C19       R109      -5.0720987818941822e+01
    C19       R110      -3.4141292340491319e+01
    C19       R111      -1.8949747380264039e+01
    C19       R112      -6.7265442779946962e+00
    C19       R114      -1.5517427642677018e+02
    C19       R115      -1.4427231254704128e+02
    C19       R116      -1.2871043190631403e+02
    C19       R117      -1.0970754286878093e+02
    C19       R118      -8.8462843753216347e+01
    C19       R119      -6.6226654942055518e+01
    C19       R120      -4.4371257410015730e+01
    C19       R121      -2.4495267343354772e+01
    C19       R122      -8.6338233732133212e+00
    MARKER    'MARKER'                 'INTEND'
    C20       OBJ       11
    C20       R84       1
    C20       R85       1
    C20       R86       1
    C20       R87       1
    C20       R88       1
    C20       R89       1
    C20       R90       1
    C20       R91       1
    C20       R92       1
    C20       R93       1
    C21       OBJ       11
    C21       R94       1
    C21       R95       1
    C21       R96       1
    C21       R97       1
    C21       R98       1
    C21       R99       1
    C21       R100      1
    C21       R101      1
    C21       R102      1
    C21       R103      1
    C22       OBJ       11
    C22       R104      1
    C22       R105      1
    C22       R106      1
    C22       R107      1
    C22       R108      1
    C22       R109      1
    C22       R110      1
    C22       R111      1
    C22       R112      1
    C22       R113      1
    C23       OBJ       11
    C23       R114      1
    C23       R115      1
    C23       R116      1
    C23       R117      1
    C23       R118      1
    C23       R119      1
    C23       R120      1
    C23       R121      1
    C23       R122      1
    C23       R123      1
    MARKER    'MARKER'                 'INTORG'
    C24       OBJ       100
    C24       R9        -10000
    MARKER    'MARKER'                 'INTEND'
    C25       R9        1
    C26       OBJ       0
    C27       OBJ       0
    C28       OBJ       0
    C29       OBJ       0
    C30       OBJ       1
    C30       R10       1
    C30       R22       1
    C30       R124      9.5793891579236523e-01
    C30       R125      8.7430326626152033e-01
    C30       R126      7.6355992030093212e-01
    C30       R127      6.3587777477101692e-01
    C30       R128      0.5
    C30       R129      3.6412222522898308e-01
    C30       R130      2.3644007969906788e-01
    C30       R131      1.2569673373847967e-01
    C30       R132      4.2061084207634769e-02
    MARKER    'MARKER'                 'INTORG'
    C31       OBJ       40
    C31       R2        -1
    C31       R3        1
    C31       R10       -10000
    C31       R124      -5.8373912678209734e+01
    C31       R125      -5.4524734374055832e+01
    C31       R126      -4.8896978959706715e+01
    C31       R127      -4.1908392927864440e+01
    C31       R128      -3.3989422804014325e+01
    C31       R129      -2.5603059955342420e+01
    C31       R130      -1.7269788523594862e+01
    C31       R131      -9.6083424226733971e+00
    C31       R132      -3.4212427831259085e+00
    MARKER    'MARKER'                 'INTEND'
    C32       OBJ       0
    C33       OBJ       11
    C33       R124      1
    C33       R125      1
    C33       R126      1
    C33       R127      1
    C33       R128      1
    C33       R129      1
    C33       R130      1
    C33       R131      1
    C33       R132      1
    C33       R133      1
    C34       OBJ       0
    C35       OBJ       0
    C36       OBJ       2
    C36       R11       1
    C36       R23       1
    C36       R134      9.5793891579236523e-01
    C36       R135      8.7430326626152033e-01
    C36       R136      7.6355992030093212e-01
    C36       R137      6.3587777477101692e-01
    C36       R138      0.5
    C36       R139      3.6412222522898308e-01
    C36       R140      2.3644007969906788e-01
    C36       R141      1.2569673373847967e-01
    C36       R142      4.2061084207634769e-02
    C36       R144      9.5793891579236523e-01
    C36       R145      8.7430326626152033e-01
    C36       R146      7.6355992030093212e-01
    C36       R147      6.3587777477101692e-01
    C36       R148      0.5
    C36       R149      3.6412222522898308e-01
    C36       R150      2.3644007969906788e-01
    C36       R151      1.2569673373847967e-01
    C36       R152      4.2061084207634769e-02
    MARKER    'MARKER'                 'INTORG'
    C37       OBJ       -80
    C37       R2        -1
    C37       R4        1
    C37       R11       -10000
    C37       R134      -5.8373912678209734e+01
    C37       R135      -5.4524734374055832e+01
    C37       R136      -4.8896978959706715e+01
    C37       R137      -4.1908392927864440e+01
    C37       R138      -3.3989422804014325e+01
    C37       R139      -2.5603059955342420e+01
    C37       R140      -1.7269788523594862e+01
    C37       R141      -9.6083424226733971e+00
    C37       R142      -3.4212427831259085e+00
    C37       R144      -1.1657080116090255e+02
    C37       R145      -1.0864189703039186e+02
    C37       R146      -9.7185839527338814e+01
    C37       R147      -8.3076065103430565e+01
    C37       R148      -6.7192034239689491e+01
    C37       R149      -5.0465399158386518e+01
    C37       R150      -3.3931458655115108e+01
    C37       R151      -1.8809113127626986e+01
    C37       R152      -6.6654613707348913e+00
    MARKER    'MARKER'                 'INTEND'
    C38       OBJ       0
    C39       OBJ       11
    C39       R134      1
    C39       R135      1
    C39       R136      1
    C39       R137      1
    C39       R138      1
    C39       R139      1
    C39       R140      1
    C39       R141      1
    C39       R142      1
    C39       R143      1
    C40       OBJ       11
    C40       R144      1
    C40       R145      1
    C40       R146      1
    C40       R147      1
    C40       R148      1
    C40       R149      1
    C40       R150      1
    C40       R151      1
    C40       R152      1
    C40       R153      1
    C41       OBJ       0
    C42       OBJ       3
    C42       R12       1
    C42       R22       -1
    C42       R154      9.5793891579236523e-01
    C42       R155      8.7430326626152033e-01
    C42       R156      7.6355992030093212e-01
    C42       R157      6.3587777477101692e-01
    C42       R158      0.5
    C42       R159      3.6412222522898308e-01
    C42       R160      2.3644007969906788e-01
    C42       R161      1.2569673373847967e-01
    C42       R162      4.2061084207634769e-02
    C42       R164      9.5793891579236523e-01
    C42       R165      8.7430326626152033e-01
    C42       R166      7.6355992030093212e-01
    C42       R167      6.3587777477101692e-01
    C42       R168      0.5
    C42       R169      3.6412222522898308e-01
    C42       R170      2.3644007969906788e-01
    C42       R171      1.2569673373847967e-01
    C42       R172      4.2061084207634769e-02
    C42       R174      9.5793891579236523e-01
    C42       R175      8.7430326626152033e-01
    C42       R176      7.6355992030093212e-01
    C42       R177      6.3587777477101692e-01
    C42       R178      0.5
    C42       R179      3.6412222522898308e-01
    C42       R180      2.3644007969906788e-01
    C42       R181      1.2569673373847967e-01
    C42       R182      4.2061084207634769e-02
    MARKER    'MARKER'                 'INTORG'
    C43       OBJ       -240
    C43       R1        1
    C43       R2        -1
    C43       R12       -10000
    C43       R154      -5.8373912678209734e+01
    C43       R155      -5.4524734374055832e+01
    C43       R156      -4.8896978959706715e+01
    C43       R157      -4.1908392927864440e+01
    C43       R158      -3.3989422804014325e+01
    C43       R159      -2.5603059955342420e+01
    C43       R160      -1.7269788523594862e+01
    C43       R161      -9.6083424226733971e+00
    C43       R162      -3.4212427831259085e+00
    C43       R164      -1.1657080116090255e+02
    C43       R165      -1.0864189703039186e+02
    C43       R166      -9.7185839527338814e+01
    C43       R167      -8.3076065103430565e+01
    C43       R168      -6.7192034239689491e+01
    C43       R169      -5.0465399158386518e+01
    C43       R170      -3.3931458655115108e+01
    C43       R171      -1.8809113127626986e+01
    C43       R172      -6.6654613707348913e+00
    C43       R174      -1.5512063042215124e+02
    C43       R175      -1.4414880064976927e+02
    C43       R176      -1.2852614567371836e+02
    C43       R177      -1.0948307237319077e+02
    C43       R178      -8.8224405803099430e+01
    C43       R179      -6.6002184446465350e+01
    C43       R180      -4.4186971177420062e+01
    C43       R181      -2.4371755446082780e+01
    C43       R182      -8.5801773685943878e+00
    MARKER    'MARKER'                 'INTEND'
    C44       OBJ       0
    C45       OBJ       11
    C45       R154      1
    C45       R155      1
    C45       R156      1
    C45       R157      1
    C45       R158      1
    C45       R159      1
    C45       R160      1
    C45       R161      1
    C45       R162      1
    C45       R163      1
    C46       OBJ       11
    C46       R164      1
    C46       R165      1
    C46       R166      1
    C46       R167      1
    C46       R168      1
    C46       R169      1
    C46       R170      1
    C46       R171      1
    C46       R172      1
    C46       R173      1
    C47       OBJ       11
    C47       R174      1
    C47       R175      1
    C47       R176      1
    C47       R177      1
    C47       R178      1
    C47       R179      1
    C47       R180      1
    C47       R181      1
    C47       R182      1
    C47       R183      1
    MARKER    'MARKER'                 'INTORG'
    C48       OBJ       100
    C48       R13       -10000
    MARKER    'MARKER'                 'INTEND'
    C49       R13       1
    C50       OBJ       0
    C51       OBJ       0
    C52       OBJ       0
    C53       OBJ       0
    MARKER    'MARKER'                 'INTORG'
    C54       OBJ       100
    C54       R14       -10000
    MARKER    'MARKER'                 'INTEND'
    C55       R14       1
    C56       OBJ       0
    C57       OBJ       0
    C58       OBJ       0
    C59       OBJ       0
    C60       OBJ       1
    C60       R15       1
    C60       R23       1
    C60       R184      9.5793891579236523e-01
    C60       R185      8.7430326626152033e-01
    C60       R186      7.6355992030093212e-01
    C60       R187      6.3587777477101692e-01
    C60       R188      0.5
    C60       R189      3.6412222522898308e-01
    C60       R190      2.3644007969906788e-01
    C60       R191      1.2569673373847967e-01
    C60       R192      4.2061084207634769e-02
    MARKER    'MARKER'                 'INTORG'
    C61       OBJ       -20
    C61       R3        -1
    C61       R4        1
    C61       R15       -10000
    C61       R184      -1.1629903649108556e+02
    C61       R185      -1.0801619954892936e+02
    C61       R186      -9.6252266048588041e+01
    C61       R187      -8.1938922634927167e+01
    C61       R188      -6.5984134206021494e+01
    C61       R189      -4.9328256689883119e+01
    C61       R190      -3.2997885176364328e+01
    C61       R191      -1.8183415646164487e+01
    C61       R192      -6.3936967009179053e+00
    MARKER    'MARKER'                 'INTEND'
    C62       OBJ       0
    C63       OBJ       0
    C64       OBJ       11
    C64       R184      1
    C64       R185      1
    C64       R186      1
    C64       R187      1
    C64       R188      1
    C64       R189      1
    C64       R190      1
    C64       R191      1
    C64       R192      1
    C64       R193      1
    C65       OBJ       0
    C66       OBJ       2
    C66       R16       1
    C66       R23       -1
    C66       R194      9.5793891579236523e-01
    C66       R195      8.7430326626152033e-01
    C66       R196      7.6355992030093212e-01
    C66       R197      6.3587777477101692e-01
    C66       R198      0.5
    C66       R199      3.6412222522898308e-01
    C66       R200      2.3644007969906788e-01
    C66       R201      1.2569673373847967e-01
    C66       R202      4.2061084207634769e-02
    C66       R204      9.5793891579236523e-01
    C66       R205      8.7430326626152033e-01
    C66       R206      7.6355992030093212e-01
    C66       R207      6.3587777477101692e-01
    C66       R208      0.5
    C66       R209      3.6412222522898308e-01
    C66       R210      2.3644007969906788e-01
    C66       R211      1.2569673373847967e-01
    C66       R212      4.2061084207634769e-02
    MARKER    'MARKER'                 'INTORG'
    C67       OBJ       -180
    C67       R1        1
    C67       R3        -1
    C67       R16       -10000
    C67       R194      -1.1629903649108556e+02
    C67       R195      -1.0801619954892936e+02
    C67       R196      -9.6252266048588041e+01
    C67       R197      -8.1938922634927167e+01
    C67       R198      -6.5984134206021494e+01
    C67       R199      -4.9328256689883119e+01
    C67       R200      -3.2997885176364328e+01
    C67       R201      -1.8183415646164487e+01
    C67       R202      -6.3936967009179053e+00
    C67       R204      -1.5488835779259716e+02
    C67       R205      -1.4361402768085267e+02
    C67       R206      -1.2772823633937611e+02
    C67       R207      -1.0851117609427125e+02
    C67       R208      -8.7192034239689491e+01
    C67       R209      -6.5030288167545834e+01
    C67       R210      -4.3389061843077826e+01
    C67       R211      -2.3836982477166174e+01
    C67       R212      -8.3479047390402918e+00
    MARKER    'MARKER'                 'INTEND'
    C68       OBJ       0
    C69       OBJ       0
    C70       OBJ       11
    C70       R194      1
    C70       R195      1
    C70       R196      1
    C70       R197      1
    C70       R198      1
    C70       R199      1
    C70       R200      1
    C70       R201      1
    C70       R202      1
    C70       R203      1
    C71       OBJ       11
    C71       R204      1
    C71       R205      1
    C71       R206      1
    C71       R207      1
    C71       R208      1
    C71       R209      1
    C71       R210      1
    C71       R211      1
    C71       R212      1
    C71       R213      1
    MARKER    'MARKER'                 'INTORG'
    C72       OBJ       100
    C72       R17       -10000
    MARKER    'MARKER'                 'INTEND'
    C73       R17       1
    C74       OBJ       0
    C75       OBJ       0
    C76       OBJ       0
    C77       OBJ       0
    MARKER    'MARKER'                 'INTORG'
    C78       OBJ       100
    C78       R18       -10000
    MARKER    'MARKER'                 'INTEND'
    C79       R18       1
    C80       OBJ       0
    C81       OBJ       0
    C82       OBJ       0
    C83       OBJ       0
    MARKER    'MARKER'                 'INTORG'
    C84       OBJ       100
    C84       R19       -10000
    MARKER    'MARKER'                 'INTEND'
    C85       R19       1
    C86       OBJ       0
    C87       OBJ       0
    C88       OBJ       0
    C89       OBJ       0
    C90       OBJ       1
    C90       R20       1
    C90       R214      9.5793891579236523e-01
    C90       R215      8.7430326626152033e-01
    C90       R216      7.6355992030093212e-01
    C90       R217      6.3587777477101692e-01
    C90       R218      0.5
    C90       R219      3.6412222522898308e-01
    C90       R220      2.3644007969906788e-01
    C90       R221      1.2569673373847967e-01
    C90       R222      4.2061084207634769e-02
    MARKER    'MARKER'                 'INTORG'
    C91       OBJ       -60
    C91       R1        1
    C91       R4        -1
    C91       R20       -10000
    C91       R214      -1.5416780425744625e+02
    C91       R215      -1.4195506100020788e+02
    C91       R216      -1.2525297098979993e+02
    C91       R217      -1.0549617040496614e+02
    C91       R218      -8.3989422804014325e+01
    C91       R219      -6.2015282478240721e+01
    C91       R220      -4.0913796493501650e+01
    C91       R221      -2.2178015796521365e+01
    C91       R222      -7.6273512038893934e+00
    MARKER    'MARKER'                 'INTEND'
    C92       OBJ       0
    C93       OBJ       0
    C94       OBJ       0
    C95       OBJ       11
    C95       R214      1
    C95       R215      1
    C95       R216      1
    C95       R217      1
    C95       R218      1
    C95       R219      1
    C95       R220      1
    C95       R221      1
    C95       R222      1
    C95       R223      1
RHS
    RHS1      R0        1
    RHS1      R1        1
BOUNDS
 BV BND1      C1      
 FX BND1      C3        0
 FX BND1      C4        0
 FX BND1      C5        0
 BV BND1      C7      
 FX BND1      C10       0
 FX BND1      C11       0
 BV BND1      C13     
 FX BND1      C17       0
 BV BND1      C19     
 FX BND1      C24       0
 FX BND1      C25       0
 FX BND1      C26       0
 FX BND1      C27       0
 FX BND1      C28       0
 FX BND1      C29       0
 BV BND1      C31     
 FX BND1      C32       0
 FX BND1      C34       0
 FX BND1      C35       0
 BV BND1      C37     
 FX BND1      C38       0
 FX BND1      C41       0
 BV BND1      C43     
 FX BND1      C44       0
 FX BND1      C48       0
 FX BND1      C49       0
 FX BND1      C50       0
 FX BND1      C51       0
 FX BND1      C52       0
 FX BND1      C53       0
 FX BND1      C54       0
 FX BND1      C55       0
 FX BND1      C56       0
 FX BND1      C57       0
 FX BND1      C58       0
 FX BND1      C59       0
 BV BND1      C61     
 FX BND1      C62       0
 FX BND1      C63       0
 FX BND1      C65       0
 BV BND1      C67     
 FX BND1      C68       0
 FX BND1      C69       0
 FX BND1      C72       0
 FX BND1      C73       0
 FX BND1      C74       0
 FX BND1      C75       0
 FX BND1      C76       0
 FX BND1      C77       0
 FX BND1      C78       0
 FX BND1      C79       0
 FX BND1      C80       0
 FX BND1      C81       0
 FX BND1      C82       0
 FX BND1      C83       0
 FX BND1      C84       0
 FX BND1      C85       0
 FX BND1      C86       0
 FX BND1      C87       0
 FX BND1      C88       0
 FX BND1      C89       0
 BV BND1      C91     
 FX BND1      C92       0
 FX BND1      C93       0
 FX BND1      C94       0
ENDATA
